p wcnf 135 270 271 
1 -13 119 0 
1 -91 -101 0 
1 104 -25 0 
1 -23 -18 0 
1 -14 42 0 
1 88 115 0 
1 -69 92 0 
1 -16 75 0 
1 10 -22 0 
1 25 132 0 
1 -127 -52 0 
1 59 9 0 
1 -130 3 0 
1 128 17 0 
1 90 -100 0 
1 111 -87 0 
1 73 10 0 
1 125 -8 0 
1 69 68 0 
1 80 62 0 
1 122 -33 0 
1 51 -74 0 
1 114 -119 0 
1 -55 -125 0 
1 -75 131 0 
1 -79 -44 0 
1 -37 -11 0 
1 47 51 0 
1 128 -127 0 
1 -29 19 0 
1 77 -71 0 
1 59 42 0 
1 -106 -103 0 
1 -24 -92 0 
1 -20 -110 0 
1 -11 134 0 
1 30 22 0 
1 24 -71 0 
1 89 55 0 
1 -89 -130 0 
1 60 -12 0 
1 118 -128 0 
1 -118 -19 0 
1 -5 -97 0 
1 92 -78 0 
1 62 -71 0 
1 60 109 0 
1 41 90 0 
1 2 -32 0 
1 99 -87 0 
1 5 -32 0 
1 86 77 0 
1 -77 -9 0 
1 -16 101 0 
1 -85 -55 0 
1 95 126 0 
1 9 8 0 
1 88 27 0 
1 -82 -101 0 
1 -108 97 0 
1 -67 -9 0 
1 -46 -12 0 
1 -11 57 0 
1 99 3 0 
1 104 -98 0 
1 -60 4 0 
1 -81 97 0 
1 -24 -25 0 
1 56 -55 0 
1 84 77 0 
1 51 86 0 
1 -77 80 0 
1 68 6 0 
1 130 59 0 
1 -115 -122 0 
1 51 90 0 
1 57 -33 0 
1 -2 34 0 
1 -125 97 0 
1 -14 -56 0 
1 3 4 0 
1 -50 -112 0 
1 -30 -76 0 
1 24 -78 0 
1 -7 41 0 
1 -110 76 0 
1 -132 89 0 
1 111 38 0 
1 45 -29 0 
1 -22 -82 0 
1 117 54 0 
1 -34 -57 0 
1 106 96 0 
1 33 -44 0 
1 -11 -57 0 
1 26 25 0 
1 37 -33 0 
1 -94 -34 0 
1 -44 79 0 
1 1 6 0 
1 -53 -48 0 
1 -106 42 0 
1 71 -15 0 
1 67 -99 0 
1 69 83 0 
1 -26 27 0 
1 43 79 0 
1 93 49 0 
1 -50 -85 0 
1 -126 122 0 
1 59 128 0 
1 89 51 0 
1 22 67 0 
1 -78 97 0 
1 103 90 0 
1 -56 -42 0 
1 59 -8 0 
1 102 132 0 
1 -109 -63 0 
1 -57 -53 0 
1 95 42 0 
1 -5 -17 0 
1 -74 51 0 
1 57 -124 0 
1 61 119 0 
1 103 -121 0 
1 -5 -55 0 
1 -55 17 0 
1 -14 52 0 
1 78 -94 0 
1 28 104 0 
1 -91 54 0 
1 -15 -96 0 
1 66 -135 0 
1 15 27 0 
1 38 134 0 
1 -116 1 0 
1 -3 36 0 
1 -11 -109 0 
1 113 -38 0 
1 -96 -56 0 
1 111 133 0 
1 112 34 0 
1 -9 75 0 
1 23 68 0 
1 -39 -31 0 
1 -75 -82 0 
1 -67 -36 0 
1 -49 23 0 
1 -45 -22 0 
1 -126 -97 0 
1 52 -39 0 
1 102 -3 0 
1 -28 -115 0 
1 75 -104 0 
1 -14 111 0 
1 -105 68 0 
1 -74 -33 0 
1 97 71 0 
1 128 -1 0 
1 -5 11 0 
1 65 -90 0 
1 -126 -82 0 
1 131 -98 0 
1 -68 -6 0 
1 -23 71 0 
1 99 113 0 
1 -5 -69 0 
1 -37 86 0 
1 8 -9 0 
1 -33 43 0 
1 -116 -26 0 
1 -16 133 0 
1 -29 34 0 
1 -17 -115 0 
1 23 69 0 
1 -86 -93 0 
1 -59 118 0 
1 91 -9 0 
1 75 -87 0 
1 -134 -50 0 
1 -87 -6 0 
1 -40 91 0 
1 64 -23 0 
1 -117 52 0 
1 -28 48 0 
1 55 -89 0 
1 -33 133 0 
1 -29 -131 0 
1 94 -30 0 
1 45 -97 0 
1 -108 2 0 
1 -125 -127 0 
1 16 107 0 
1 -28 -101 0 
1 -82 8 0 
1 85 -100 0 
1 -6 -10 0 
1 78 -31 0 
1 131 43 0 
1 -63 -98 0 
1 82 19 0 
1 -34 73 0 
1 34 67 0 
1 115 19 0 
1 86 -41 0 
1 128 -20 0 
1 -8 126 0 
1 -112 75 0 
1 -7 -25 0 
1 77 99 0 
1 30 21 0 
1 -88 58 0 
1 115 80 0 
1 -92 73 0 
1 -8 114 0 
1 21 -26 0 
1 -24 88 0 
1 34 86 0 
1 102 -60 0 
1 -94 61 0 
1 9 121 0 
1 130 -54 0 
1 -20 25 0 
1 -14 48 0 
1 49 66 0 
1 84 -69 0 
1 44 -29 0 
1 -29 -19 0 
1 -28 -93 0 
1 132 9 0 
1 85 -92 0 
1 41 -39 0 
1 10 -88 0 
1 -33 -5 0 
1 80 97 0 
1 -40 -65 0 
1 108 70 0 
1 -33 129 0 
1 13 -30 0 
1 -73 -35 0 
1 34 -104 0 
1 -20 102 0 
1 -84 -28 0 
1 113 -3 0 
1 -113 80 0 
1 118 1 0 
1 118 -61 0 
1 82 130 0 
1 -15 -79 0 
1 95 -57 0 
1 70 11 0 
1 -95 36 0 
1 -15 -84 0 
1 -91 114 0 
1 -102 -48 0 
1 -119 39 0 
1 102 80 0 
1 100 -81 0 
1 39 78 0 
1 -89 46 0 
1 -53 96 0 
1 58 78 0 
1 29 68 0 
1 120 46 0 
1 -119 132 0 
1 62 132 0 
1 -62 129 0 
1 52 -48 0 
1 -73 -104 0 
